c CNF file corresponding to a (partial) station packing problem.
p cnf 6300 213
1 2 3 4 5 6 7 8 9 10 11 12 13 14 0
-1 -2 0
-1 -3 0
-1 -4 0
-1 -5 0
-1 -6 0
-1 -7 0
-1 -8 0
-1 -9 0
-1 -10 0
-1 -11 0
-1 -12 0
-1 -13 0
-1 -14 0
-2 -3 0
-2 -4 0
-2 -5 0
-2 -6 0
-2 -7 0
-2 -8 0
-2 -9 0
-2 -10 0
-2 -11 0
-2 -12 0
-2 -13 0
-2 -14 0
-3 -4 0
-3 -5 0
-3 -6 0
-3 -7 0
-3 -8 0
-3 -9 0
-3 -10 0
-3 -11 0
-3 -12 0
-3 -13 0
-3 -14 0
-4 -5 0
-4 -6 0
-4 -7 0
-4 -8 0
-4 -9 0
-4 -10 0
-4 -11 0
-4 -12 0
-4 -13 0
-4 -14 0
-5 -6 0
-5 -7 0
-5 -8 0
-5 -9 0
-5 -10 0
-5 -11 0
-5 -12 0
-5 -13 0
-5 -14 0
-6 -7 0
-6 -8 0
-6 -9 0
-6 -10 0
-6 -11 0
-6 -12 0
-6 -13 0
-6 -14 0
-7 -8 0
-7 -9 0
-7 -10 0
-7 -11 0
-7 -12 0
-7 -13 0
-7 -14 0
-8 -9 0
-8 -10 0
-8 -11 0
-8 -12 0
-8 -13 0
-8 -14 0
-9 -10 0
-9 -11 0
-9 -12 0
-9 -13 0
-9 -14 0
-10 -11 0
-10 -12 0
-10 -13 0
-10 -14 0
-11 -12 0
-11 -13 0
-11 -14 0
-12 -13 0
-12 -14 0
-13 -14 0
6285 6286 6287 6288 6289 6290 6291 6292 6293 6294 6295 6296 6297 6298 6299 6300 0
-6285 -6286 0
-6285 -6287 0
-6285 -6288 0
-6285 -6289 0
-6285 -6290 0
-6285 -6291 0
-6285 -6292 0
-6285 -6293 0
-6285 -6294 0
-6285 -6295 0
-6285 -6296 0
-6285 -6297 0
-6285 -6298 0
-6285 -6299 0
-6285 -6300 0
-6286 -6287 0
-6286 -6288 0
-6286 -6289 0
-6286 -6290 0
-6286 -6291 0
-6286 -6292 0
-6286 -6293 0
-6286 -6294 0
-6286 -6295 0
-6286 -6296 0
-6286 -6297 0
-6286 -6298 0
-6286 -6299 0
-6286 -6300 0
-6287 -6288 0
-6287 -6289 0
-6287 -6290 0
-6287 -6291 0
-6287 -6292 0
-6287 -6293 0
-6287 -6294 0
-6287 -6295 0
-6287 -6296 0
-6287 -6297 0
-6287 -6298 0
-6287 -6299 0
-6287 -6300 0
-6288 -6289 0
-6288 -6290 0
-6288 -6291 0
-6288 -6292 0
-6288 -6293 0
-6288 -6294 0
-6288 -6295 0
-6288 -6296 0
-6288 -6297 0
-6288 -6298 0
-6288 -6299 0
-6288 -6300 0
-6289 -6290 0
-6289 -6291 0
-6289 -6292 0
-6289 -6293 0
-6289 -6294 0
-6289 -6295 0
-6289 -6296 0
-6289 -6297 0
-6289 -6298 0
-6289 -6299 0
-6289 -6300 0
-6290 -6291 0
-6290 -6292 0
-6290 -6293 0
-6290 -6294 0
-6290 -6295 0
-6290 -6296 0
-6290 -6297 0
-6290 -6298 0
-6290 -6299 0
-6290 -6300 0
-6291 -6292 0
-6291 -6293 0
-6291 -6294 0
-6291 -6295 0
-6291 -6296 0
-6291 -6297 0
-6291 -6298 0
-6291 -6299 0
-6291 -6300 0
-6292 -6293 0
-6292 -6294 0
-6292 -6295 0
-6292 -6296 0
-6292 -6297 0
-6292 -6298 0
-6292 -6299 0
-6292 -6300 0
-6293 -6294 0
-6293 -6295 0
-6293 -6296 0
-6293 -6297 0
-6293 -6298 0
-6293 -6299 0
-6293 -6300 0
-6294 -6295 0
-6294 -6296 0
-6294 -6297 0
-6294 -6298 0
-6294 -6299 0
-6294 -6300 0
-6295 -6296 0
-6295 -6297 0
-6295 -6298 0
-6295 -6299 0
-6295 -6300 0
-6296 -6297 0
-6296 -6298 0
-6296 -6299 0
-6296 -6300 0
-6297 -6298 0
-6297 -6299 0
-6297 -6300 0
-6298 -6299 0
-6298 -6300 0
-6299 -6300 0
